Route #1: 46 47 17 37 5 49 9 38 11 12
Route #2: 27 32 1 6 48 7 23 24 14 25
Route #3: 18 4 41 19 15 44 42 40 13
Route #4: 22 2 16 29 20 3 28 31 8 26
Route #5: 50 34 21 30 10 39 45 33 35 36 43
cost: 730
